p ocr 20 20 40
1 21
1 22
2 21
2 23
3 22
3 24
4 23
4 25
5 24
5 26
6 25
6 27
7 26
7 28
8 27
8 29
9 28
9 30
10 29
10 31
11 30
11 32
12 31
12 33
13 32
13 34
14 33
14 35
15 34
15 36
16 35
16 37
17 36
17 38
18 37
18 39
19 38
19 40
20 39
20 40